30      40
1      21      35
1      25      10
1      26      19
2      25      32
3      22      14
3      23      35
3      24      11
3      30      43
4       5      29
4       9      41
4      29      31
6      21      15
7      11      21
7      26       8
8      30      44
11      21       5
12      17      22
12      21      36
13       3       4
14      12      31
14      15      31
14      19       8
18       3      18
18      29      19
19       8      14
19      20      39
21      11      27
23       16      20
23       8      27
23      11      17
24       9      31
24      10      37
24      11      32
24      14      34
25       2      28
26       9       6
26      18      41
28      11      23
28      27      14
30       4      28
   
16
  
1
3
4
5
7
8
10
15
19
20
21
23
24
27
28
30

4

1 10 23 24
3 4 5 30
8 19 27 28
7 15 20 21
